
Gurobi 11.0.3 (linux64) logging started Mon Nov 25 03:33:52 2024

Set parameter LogFile to value "/home/yihong/Coding/OR_SUC/SUC_results_bigM100000_thread4/case24_ieee_rts_theta0.1_epsilon0.025_gurobi_seed1340000_num_gen100_N_WDR100_load_scaling_factor1_proposed_T20quadra_cost.txt"
Set parameter TimeLimit to value 3600
Gurobi Optimizer version 11.0.3 build v11.0.3rc0 (linux64 - "Ubuntu 20.04.6 LTS")

CPU model: AMD EPYC 7532 32-Core Processor, instruction set [SSE2|AVX|AVX2]
Thread count: 64 physical cores, 128 logical processors, using up to 4 threads

Optimize a model with 43202 rows, 24901 columns and 590362 nonzeros
Model fingerprint: 0x5dad5958
Model has 2000 quadratic constraints
Variable types: 22901 continuous, 2000 integer (2000 binary)
Coefficient statistics:
  Matrix range     [3e-04, 3e+03]
  QMatrix range    [2e-03, 8e-03]
  QLMatrix range   [6e-02, 6e+01]
  Objective range  [1e+00, 1e+00]
  Bounds range     [1e+00, 1e+00]
  RHS range        [1e+00, 9e+03]
Presolve removed 35032 rows and 10807 columns
Presolve time: 0.23s
Presolved: 8170 rows, 14094 columns, 52492 nonzeros
Presolved model has 2000 quadratic constraint(s)
Variable types: 12094 continuous, 2000 integer (2000 binary)

Root relaxation: objective 3.161851e+04, 6296 iterations, 0.14 seconds (0.20 work units)

    Nodes    |    Current Node    |     Objective Bounds      |     Work
 Expl Unexpl |  Obj  Depth IntInf | Incumbent    BestBd   Gap | It/Node Time

     0     0 31618.5052    0   20          - 31618.5052      -     -    0s
     0     0 346596.614    0  478          - 346596.614      -     -    0s
     0     0 353920.555    0  484          - 353920.555      -     -    0s
     0     0 559180.127    0  414          - 559180.127      -     -    1s
     0     0 559189.648    0  380          - 559189.648      -     -    1s
     0     0 559358.121    0  259          - 559358.121      -     -    1s
     0     0 559359.184    0  259          - 559359.184      -     -    1s
     0     0 559359.184    0  259          - 559359.184      -     -    1s
     0     0 559359.184    0  259          - 559359.184      -     -    1s
     0     0 559359.184    0  259          - 559359.184      -     -    5s
     0     2 559359.184    0  259          - 559359.184      -     -    5s
H  445   278                    559709.67777 559379.415  0.06%  15.3    6s
*  445   278             125    559709.67777 559379.415  0.06%  15.4    6s

Cutting planes:
  Gomory: 11
  Implied bound: 329
  MIR: 46
  Flow cover: 52

Explored 492 nodes (24475 simplex iterations) in 7.66 seconds (6.95 work units)
Thread count was 4 (of 128 available processors)

Solution count 2: 559710 559710 

Optimal solution found (tolerance 1.00e-03)
Warning: max constraint violation (2.4496e-07) exceeds tolerance
Best objective 5.597096777700e+05, best bound 5.593794153386e+05, gap 0.0590%
